words_hard_train/5050.qaiger
aag 45 16 0 1 29
2
4
8
16
18
24
26
30
34
38
42
54
56
60
70
78
90
6 3 5
10 7 8
12 2 4
14 10 13
20 16 18
22 15 21
28 25 26
32 13 31
36 33 34
40 37 38
44 41 42
46 36 39
48 44 47
50 29 48
52 22 51
58 54 56
62 60 3
64 59 63
66 12 30
68 67 33
72 69 70
74 64 73
76 32 35
80 77 78
82 80 37
84 74 83
86 49 26
88 84 87
90 52 88
i0 2 y2[3]
i1 2 y2[4]
i2 1 x1[4]
i3 1 x1[1]
i4 2 y2[1]
i5 1 x1[0]
i6 2 y2[0]
i7 2 y2[5]
i8 2 y2[6]
i9 2 y2[7]
i10 1 x1[7]
i11 1 x1[2]
i12 2 y2[2]
i13 1 x1[3]
i14 1 x1[5]
i15 1 x1[6]
o0 bool[0]
c
simplified
  ==
    << 7
      2 y2
    and
      add
        2 y2
        168
      1 x1
