words_hard_train/5050.qaiger.qdimacs
p cnf 45 88
a 35 4 39 8 12 21 27 30 0
e 1 2 3 5 6 7 9 10 11 13 14 15 16 17 18 19 20 22 23 24 25 26 28 29 31 32 33 34 36 37 38 40 41 42 43 44 45 0
1 2 3 0
-1 -3 0
-2 -3 0
3 -4 5 0
-3 -5 0
4 -5 0
-1 -2 6 0
1 -6 0
2 -6 0
-5 6 7 0
5 -7 0
-6 -7 0
-8 -9 10 0
8 -10 0
9 -10 0
7 10 11 0
-7 -11 0
-10 -11 0
12 -13 14 0
-12 -14 0
13 -14 0
6 15 16 0
-6 -16 0
-15 -16 0
16 -17 18 0
-16 -18 0
17 -18 0
18 -19 20 0
-18 -20 0
19 -20 0
20 -21 22 0
-20 -22 0
21 -22 0
-18 19 23 0
18 -23 0
-19 -23 0
-22 23 24 0
22 -24 0
-23 -24 0
14 -24 25 0
-14 -25 0
24 -25 0
-11 25 26 0
11 -26 0
-25 -26 0
-27 -28 29 0
27 -29 0
28 -29 0
-30 1 31 0
30 -31 0
-1 -31 0
29 31 32 0
-29 -32 0
-31 -32 0
-6 -15 33 0
6 -33 0
15 -33 0
33 16 34 0
-33 -34 0
-16 -34 0
34 -35 36 0
-34 -36 0
35 -36 0
-32 36 37 0
32 -37 0
-36 -37 0
-16 17 38 0
16 -38 0
-17 -38 0
38 -39 40 0
-38 -40 0
39 -40 0
-40 18 41 0
40 -41 0
-18 -41 0
-37 41 42 0
37 -42 0
-41 -42 0
24 -13 43 0
-24 -43 0
13 -43 0
-42 43 44 0
42 -44 0
-43 -44 0
-26 -44 45 0
26 -45 0
44 -45 0
45 0
